
Gurobi 11.0.3 (linux64) logging started Mon 18 Nov 2024 08:12:15 PM CST

Set parameter LogFile to value "/home/dlcole3/graph_abstraction/hierarchical_graphs/git_storage/CS1/HP_low_reserves/gurobi_logs/serial/logfile_DA_7.log"
Set parameter TimeLimit to value 900

Gurobi 11.0.3 (linux64) logging started Mon 18 Nov 2024 08:12:16 PM CST

Set parameter LogFile to value "/home/dlcole3/graph_abstraction/hierarchical_graphs/git_storage/CS1/HP_low_reserves/gurobi_logs/serial/logfile_DA_7.log"
Gurobi Optimizer version 11.0.3 build v11.0.3rc0 (linux64 - "Ubuntu 18.04.3 LTS")

CPU model: Intel(R) Xeon(R) CPU E5-2698 v4 @ 2.20GHz, instruction set [SSE2|AVX|AVX2]
Thread count: 40 physical cores, 80 logical processors, using up to 20 threads

Optimize a model with 35850 rows, 31725 columns and 164765 nonzeros
Model fingerprint: 0x39e83835
Variable types: 19950 continuous, 11775 integer (11775 binary)
Coefficient statistics:
  Matrix range     [5e-02, 2e+04]
  Objective range  [1e+00, 8e+04]
  Bounds range     [5e-02, 2e+05]
  RHS range        [5e-02, 7e+03]
Presolve removed 4286 rows and 5694 columns
Presolve time: 0.79s
Presolved: 31564 rows, 26031 columns, 146632 nonzeros
Variable types: 15449 continuous, 10582 integer (10582 binary)
Found heuristic solution: objective 1.160363e+09
Found heuristic solution: objective 9.766497e+08
Found heuristic solution: objective 7.186802e+08
Deterministic concurrent LP optimizer: primal and dual simplex
Showing primal log only...

Concurrent spin time: 0.00s

Solved with dual simplex

Use crossover to convert LP symmetric solution to basic solution...

Root relaxation: objective 1.221413e+07, 12946 iterations, 1.13 seconds (0.78 work units)

    Nodes    |    Current Node    |     Objective Bounds      |     Work
 Expl Unexpl |  Obj  Depth IntInf | Incumbent    BestBd   Gap | It/Node Time

     0     0 1.2214e+07    0   79 7.1868e+08 1.2214e+07  98.3%     -    3s
H    0     0                    7.157854e+08 1.2214e+07  98.3%     -    3s
H    0     0                    1.862466e+07 1.2214e+07  34.4%     -    3s
H    0     0                    1.862200e+07 1.2216e+07  34.4%     -    3s
H    0     0                    1.859967e+07 1.2216e+07  34.3%     -    3s
     0     0 1.2216e+07    0  102 1.8600e+07 1.2216e+07  34.3%     -    3s
H    0     0                    1.659060e+07 1.2218e+07  26.4%     -    4s
     0     0 1.2218e+07    0  116 1.6591e+07 1.2218e+07  26.4%     -    4s
     0     0 1.2218e+07    0  112 1.6591e+07 1.2218e+07  26.4%     -    4s
     0     0 1.2218e+07    0  118 1.6591e+07 1.2218e+07  26.4%     -    5s
     0     0 1.2218e+07    0  118 1.6591e+07 1.2218e+07  26.4%     -    5s
     0     2 1.2218e+07    0  118 1.6591e+07 1.2218e+07  26.4%     -    6s
H   39    52                    1.658794e+07 1.2225e+07  26.3%  85.3    9s
    51    72 1.2250e+07    6   59 1.6588e+07 1.2225e+07  26.3%  77.9   10s
H   53    72                    1.314313e+07 1.2225e+07  6.99%  75.3   10s
H   68    72                    1.231973e+07 1.2225e+07  0.77%  74.5   10s
H  177   196                    1.228129e+07 1.2226e+07  0.45%  76.0   14s
   217   251 1.2257e+07   14   70 1.2281e+07 1.2226e+07  0.45%  72.6   15s
H  256   270                    1.224808e+07 1.2226e+07  0.18%  67.3   21s
H  261   270                    1.224593e+07 1.2226e+07  0.16%  66.1   21s
   827   646 1.2238e+07   11   64 1.2246e+07 1.2227e+07  0.16%  39.0   25s
H  898   646                    1.224383e+07 1.2227e+07  0.14%  38.0   25s
H 1097   729                    1.224367e+07 1.2227e+07  0.14%  37.0   25s
* 1308   800              44    1.224360e+07 1.2227e+07  0.14%  34.8   26s
  2448  1098     cutoff   25      1.2244e+07 1.2230e+07  0.11%  30.3   30s

Cutting planes:
  Gomory: 8

Explored 2691 nodes (94409 simplex iterations) in 30.87 seconds (30.37 work units)
Thread count was 20 (of 80 available processors)

Solution count 10: 1.22436e+07 1.22436e+07 1.22437e+07 ... 1.65879e+07

Optimal solution found (tolerance 1.00e-03)
Best objective 1.224360311774e+07, best bound 1.223221219597e+07, gap 0.0930%

User-callback calls 12280, time in user-callback 0.02 sec
